p wcnf 120 180 181 
1 -58 26 0 
1 -108 83 0 
1 13 -56 0 
1 26 3 0 
1 29 -62 0 
1 32 -26 0 
1 -99 85 0 
1 16 62 0 
1 -9 5 0 
1 -37 35 0 
1 -53 96 0 
1 37 119 0 
1 -116 32 0 
1 92 -97 0 
1 -79 -72 0 
1 -64 66 0 
1 -25 -100 0 
1 -10 -82 0 
1 22 6 0 
1 -67 69 0 
1 -31 34 0 
1 -78 -106 0 
1 67 11 0 
1 -92 -32 0 
1 67 -105 0 
1 26 23 0 
1 77 -120 0 
1 7 36 0 
1 30 79 0 
1 4 47 0 
1 -73 -54 0 
1 91 -93 0 
1 -114 -105 0 
1 -31 70 0 
1 -68 -29 0 
1 68 -1 0 
1 -23 -113 0 
1 93 -120 0 
1 -84 86 0 
1 -118 43 0 
1 40 6 0 
1 9 11 0 
1 75 -59 0 
1 -41 -75 0 
1 67 -77 0 
1 -101 39 0 
1 104 -71 0 
1 89 -18 0 
1 -70 -82 0 
1 41 -106 0 
1 10 103 0 
1 108 -102 0 
1 44 -84 0 
1 -24 -89 0 
1 82 -21 0 
1 68 -47 0 
1 83 -114 0 
1 -27 -46 0 
1 -37 40 0 
1 -118 1 0 
1 20 1 0 
1 36 -45 0 
1 -116 117 0 
1 74 -110 0 
1 -24 6 0 
1 105 98 0 
1 102 80 0 
1 -21 74 0 
1 18 39 0 
1 116 -91 0 
1 -60 2 0 
1 13 -103 0 
1 77 -42 0 
1 -92 -77 0 
1 -86 -33 0 
1 -48 87 0 
1 96 23 0 
1 76 -23 0 
1 -86 -112 0 
1 -35 40 0 
1 90 96 0 
1 12 112 0 
1 118 -101 0 
1 7 108 0 
1 -96 -100 0 
1 -37 -108 0 
1 108 -54 0 
1 -120 27 0 
1 46 -92 0 
1 91 15 0 
1 -79 -87 0 
1 -42 20 0 
1 -6 -120 0 
1 80 70 0 
1 10 21 0 
1 -99 73 0 
1 -15 89 0 
1 -110 101 0 
1 -98 -5 0 
1 52 35 0 
1 -18 71 0 
1 -101 60 0 
1 -68 87 0 
1 94 -68 0 
1 -96 -92 0 
1 8 83 0 
1 -92 -62 0 
1 -35 31 0 
1 38 60 0 
1 -64 -73 0 
1 -18 -83 0 
1 -15 64 0 
1 94 -18 0 
1 -60 22 0 
1 -21 25 0 
1 99 117 0 
1 -18 -9 0 
1 -35 -21 0 
1 -39 29 0 
1 -3 -31 0 
1 30 81 0 
1 105 75 0 
1 -75 -4 0 
1 41 107 0 
1 57 9 0 
1 83 13 0 
1 19 56 0 
1 -115 65 0 
1 -38 41 0 
1 71 -111 0 
1 -108 106 0 
1 -93 78 0 
1 89 15 0 
1 47 -72 0 
1 -108 20 0 
1 -110 100 0 
1 92 103 0 
1 -38 -16 0 
1 115 -36 0 
1 98 64 0 
1 98 16 0 
1 -19 -11 0 
1 80 62 0 
1 -63 -112 0 
1 68 38 0 
1 24 -62 0 
1 -115 -42 0 
1 -59 -95 0 
1 -57 37 0 
1 -49 5 0 
1 -7 -76 0 
1 118 -53 0 
1 -38 9 0 
1 97 54 0 
1 93 -78 0 
1 68 89 0 
1 21 -74 0 
1 -118 -52 0 
1 -76 43 0 
1 -111 38 0 
1 63 -104 0 
1 118 -14 0 
1 -69 12 0 
1 63 -2 0 
1 -58 -116 0 
1 -22 -19 0 
1 -28 -34 0 
1 56 -54 0 
1 28 51 0 
1 18 -28 0 
1 -12 9 0 
1 -101 105 0 
1 -92 47 0 
1 97 -20 0 
1 109 -92 0 
1 12 32 0 
1 -110 66 0 
1 -109 82 0 
1 -87 -109 0 
1 -35 116 0 
